GLPSOL: GLPK LP/MIP Solver, v4.65
Parameter(s) specified in the command line:
 --model solver_drone.mod --data solver_drone_data_20.dat --output solver_drone_solution_20_4.log
 --log solver_drone_cmd_output_20_4.log --tmlim 30
Reading model section from solver_drone.mod...
41 lines were read
Reading data section from solver_drone_data_20.dat...
59 lines were read
Generating f...
Generating package_deliverd_once...
Generating package_well_delivered...
Generating time_spent_flying...
Generating autonomy_not_exceeded...
Generating check_time_max...
Model has been successfully generated
GLPK Integer Optimizer, v4.65
2331 rows, 2273 columns, 6925 non-zeros
2273 integer variables, 2268 of which are binary
Preprocessing...
62 rows, 2273 columns, 4656 non-zeros
2273 integer variables, 2268 of which are binary
Scaling...
 A: min|aij| =  1.000e+00  max|aij| =  2.856e+03  ratio =  2.856e+03
GM: min|aij| =  4.803e-01  max|aij| =  2.082e+00  ratio =  4.335e+00
EQ: min|aij| =  2.307e-01  max|aij| =  1.000e+00  ratio =  4.335e+00
2N: min|aij| =  1.250e-01  max|aij| =  1.180e+00  ratio =  9.438e+00
Constructing initial basis...
Size of triangular part is 62
Solving LP relaxation...
GLPK Simplex Optimizer, v4.65
62 rows, 2273 columns, 4656 non-zeros
      0: obj =   0.000000000e+00 inf =   1.152e+03 (1)
     87: obj =   9.218000000e+03 inf =   3.080e-14 (0)
*    89: obj =   9.218000000e+03 inf =   2.132e-14 (0)
OPTIMAL LP SOLUTION FOUND
Integer optimization begins...
Long-step dual simplex will be used
+    89: mip =     not found yet >=              -inf        (1; 0)
+   492: >>>>>   9.896000000e+03 >=   9.218000000e+03   6.9% (40; 0)
+   550: >>>>>   9.800000000e+03 >=   9.218000000e+03   5.9% (47; 19)
+   710: >>>>>   9.760000000e+03 >=   9.218000000e+03   5.6% (62; 62)
+   813: >>>>>   9.720000000e+03 >=   9.218000000e+03   5.2% (78; 63)
+   923: >>>>>   9.472000000e+03 >=   9.218000000e+03   2.7% (94; 86)
+  1004: >>>>>   9.432000000e+03 >=   9.218000000e+03   2.3% (99; 129)
+  1015: >>>>>   9.304000000e+03 >=   9.218000000e+03   0.9% (101; 132)
+  1659: >>>>>   9.256000000e+03 >=   9.218000000e+03   0.4% (237; 185)
+  2799: >>>>>   9.232000000e+03 >=   9.218000000e+03   0.2% (492; 359)
+ 17197: mip =   9.232000000e+03 >=   9.218000000e+03   0.2% (1820; 2987)
+ 23955: >>>>>   9.224000000e+03 >=   9.218000000e+03 < 0.1% (2427; 4091)
+ 37693: mip =   9.224000000e+03 >=   9.218000000e+03 < 0.1% (3246; 7382)
+ 53118: mip =   9.224000000e+03 >=   9.218000000e+03 < 0.1% (4703; 9504)
+ 67764: mip =   9.224000000e+03 >=   9.218000000e+03 < 0.1% (5551; 12265)
+ 83076: mip =   9.224000000e+03 >=   9.218000000e+03 < 0.1% (6329; 15219)
+ 88473: mip =   9.224000000e+03 >=   9.218000000e+03 < 0.1% (6560; 16270)
TIME LIMIT EXCEEDED; SEARCH TERMINATED
Time used:   30.0 secs
Memory used: 11.9 Mb (12515754 bytes)
The package 1 is delivered by the drone 1 to the house 2
The package 2 is delivered by the drone 3 to the house 2
The package 3 is delivered by the drone 4 to the house 4
The package 4 is delivered by the drone 4 to the house 4
The package 5 is delivered by the drone 4 to the house 4
The package 6 is delivered by the drone 3 to the house 5
The package 7 is delivered by the drone 1 to the house 6
The package 8 is delivered by the drone 4 to the house 6
The package 9 is delivered by the drone 2 to the house 6
The package 10 is delivered by the drone 1 to the house 8
The package 11 is delivered by the drone 3 to the house 8
The package 12 is delivered by the drone 4 to the house 8
The package 13 is delivered by the drone 3 to the house 9
The package 14 is delivered by the drone 4 to the house 9
The package 15 is delivered by the drone 1 to the house 10
The package 16 is delivered by the drone 1 to the house 10
The package 17 is delivered by the drone 4 to the house 11
The package 18 is delivered by the drone 2 to the house 12
The package 19 is delivered by the drone 1 to the house 15
The package 20 is delivered by the drone 2 to the house 16
The package 21 is delivered by the drone 2 to the house 16
The package 22 is delivered by the drone 3 to the house 18
The package 23 is delivered by the drone 3 to the house 18
The package 24 is delivered by the drone 1 to the house 20
The package 25 is delivered by the drone 1 to the house 20
The package 26 is delivered by the drone 2 to the house 21
The package 27 is delivered by the drone 2 to the house 21
Model has been successfully processed
Writing MIP solution to 'solver_drone_solution_20_4.log'...
